TOUR_SECTION
1
8
3
83
56
92
33
81
109
31
76
107
45
149
141
118
60
153
57
99
185
100
117
47
190
137
23
63
183
73
77
170
198
61
105
182
113
37
27
166
201
116
110
62
200
194
169
132
2
123
29
146
133
165
24
195
51
191
112
68
160
25
4
78
89
196
193
84
85
70
22
145
128
176
161
98
151
179
32
167
124
104
94
108
134
65
192
95
142
36
186
44
150
188
7
199
35
126
21
164
189
53
157
177
156
135
54
96
40
140
34
115
80
82
129
155
175
67
64
6
17
18
114
178
46
103
168
71
154
90
20
197
148
147
52
69
43
88
87
13
30
11
12
121
79
125
187
122
101
16
9
139
102
138
171
143
38
39
173
59
93
42
111
180
152
14
162
75
106
72
86
19
119
50
28
144
58
130
163
5
55
159
49
97
131
91
127
174
74
48
41
181
172
26
184
120
10
15
66
158
136
-1
EOF